(set-logic QF_S)
(set-option :strings-exp true)
(set-option :produce-models true)
(declare-fun sigmaStar_1 () String)
(declare-fun literal_5 () String)
(assert (= literal_5 "\x2f\x2f\x64\x62\x2f\x6d\x69\x67\x72\x61\x74\x65\x32\x75\x74\x66\x38\x2e\x70\x68\x70"))
(assert (str.in.re literal_5 (re.++ (re.* re.allchar) (re.++ (str.to.re "\x2f\x65\x76\x69\x6c") (re.* re.allchar)))))
(check-sat)
(get-model)
